(set-info :origin "SVCOMP13 benchmarks generated by Arie Gurfinkel")
(set-info :status sat)
(set-logic HORN)
(declare-fun cp-rel-entry () Bool)
(declare-fun cp-rel-bb2.i.i34.i.i () Bool)
(declare-fun cp-rel-bb1.i.i (Real Real Real) Bool)
(assert |cp-rel-entry|)
(assert (forall ((?A Real) (?B Real) (?C Real) (?D Bool) )(let (($x250031 (and |cp-rel-entry| (<= ?C 1.0) (>= ?B 0.0) (<= ?B 0.0) (>= ?A 0.0) (<= ?A 0.0) (= ?D true) (>= ?C 1.0))))
(=> $x250031 (|cp-rel-bb1.i.i| ?A ?B ?C))))
)
(assert (forall ((?A Real) (?B Real) (?C Real) (?D Real) (?E Real) (?F Real) (?G Bool) (?H Bool) (?I Bool) (?J Bool) (?K Bool) (?L Bool) (?M Real) (?N Real) (?O Bool) (?P Bool) (?Q Bool) (?R Bool) (?S Bool) (?T Bool) (?U Real) (?V Real) (?W Bool) (?X Bool) (?Y Bool) (?Z Bool) (?A1 Bool) (?B1 Bool) (?C1 Bool) (?D1 Bool) (?E1 Bool) (?F1 Bool) (?G1 Bool) (?H1 Bool) (?I1 Bool) (?J1 Bool) (?K1 Real) (?L1 Real) (?M1 Real) (?N1 Bool) (?O1 Bool) (?P1 Real) (?Q1 Bool) (?R1 Bool) (?S1 Real) (?T1 Bool) (?U1 Real) (?V1 Real) (?W1 Bool) (?X1 Bool) (?Y1 Real) (?Z1 Bool) (?A2 Bool) (?B2 Bool) (?C2 Bool) (?D2 Bool) )(let (($x362407 (|cp-rel-bb1.i.i| ?D ?E ?F)))
(let (($x272480 (= ?R1 (and ?D2 ?C2))))
(let (($x137878 (or (not ?G) (and ?H ?I (not ?J)))))
(let (($x201869 (or (not ?G) ?I)))
(let (($x549955 (not ?K)))
(let (($x194795 (or $x549955 (and ?G ?L (<= ?M ?N) (>= ?M ?N)) (and ?H ?O ?J (<= ?M ?C) (>= ?M ?C)))))
(let (($x126457 (or $x549955 (and ?L (not ?O)) (and ?O (not ?L)))))
(let (($x475486 (or (not ?P) (and ?K ?Q (not ?R)))))
(let (($x266353 (or (not ?P) ?Q)))
(let (($x16197 (not ?S)))
(let (($x870299 (or $x16197 (and ?P ?T (<= ?U ?V) (>= ?U ?V)) (and ?K ?W ?R (<= ?U ?B) (>= ?U ?B)))))
(let (($x833416 (or $x16197 (and ?T (not ?W)) (and ?W (not ?T)))))
(let (($x323890 (or (not ?X) (and ?S ?Y ?Z))))
(let (($x268472 (or (not ?X) ?Y)))
(let (($x855196 (or (not ?A1) (and ?S ?B1 (not ?Z)))))
(let (($x239043 (or (not ?A1) ?B1)))
(let (($x233306 (or (not ?C1) (and ?X ?D1 ?E1))))
(let (($x572313 (or (not ?C1) ?D1)))
(let (($x553819 (or (not ?F1) (and ?A1 ?G1 ?H1))))
(let (($x858249 (or (not ?F1) ?G1)))
(let (($x128216 (>= ?K1 ?P1)))
(let (($x279462 (<= ?K1 ?P1)))
(let (($x508809 (and ?A1 ?Q1 (not ?H1) $x279462 $x128216 (<= ?L1 0.0) (>= ?L1 0.0))))
(let (($x63001 (>= ?K1 ?M)))
(let (($x174006 (<= ?K1 ?M)))
(let (($x101657 (not ?I1)))
(let (($x387570 (or $x101657 (and ?C1 ?J1 $x174006 $x63001 (<= ?L1 ?M1) (>= ?L1 ?M1)) (and ?X ?N1 (not ?E1) $x174006 $x63001 (<= ?L1 ?A) (>= ?L1 ?A)) (and ?F1 ?O1 $x279462 $x128216 (<= ?L1 ?A) (>= ?L1 ?A)) $x508809)))
(let (($x267025 (or $x101657 (and ?J1 (not ?N1) (not ?O1) (not ?Q1)) (and ?N1 (not ?J1) (not ?O1) (not ?Q1)) (and ?O1 (not ?J1) (not ?N1) (not ?Q1)) (and ?Q1 (not ?J1) (not ?N1) (not ?O1)))))
(let (($x288477 (= ?I1 true)))
(let (($x302901 (= ?J (= ?S1 0.0))))
(let (($x275076 (= ?U1 (ite ?T1 1.0 0.0))))
(let (($x319210 (= ?R (= ?V1 0.0))))
(let (($x331497 (= ?V (ite ?W1 1.0 0.0))))
(let (($x465647 (= ?E1 (not (<= ?M 1.0)))))
(let (($x151164 (= ?X1 (not (<= ?M 0.0)))))
(let (($x227626 (= ?Y1 (+ (~ 1.0) ?M))))
(let (($x356883 (= ?P1 (ite ?X1 ?Y1 ?M))))
(let (($x63613 (= ?H1 (= ?P1 0.0))))
(let (($x642212 (= ?Z1 (= ?U 0.0))))
(let (($x300331 (= ?A2 (= ?U 0.0))))
(let (($x6539 (= ?B2 (= ?K1 2.0))))
(let (($x354980 (= ?C2 (= ?L1 0.0))))
(let (($x623034 (= ?D2 (and ?B2 ?A2))))
(let (($x358125 (and (|cp-rel-bb1.i.i| ?A ?B ?C) $x623034 $x354980 $x6539 $x300331 (= ?M1 (ite ?Z1 1.0 ?A)) $x642212 $x63613 $x356883 $x227626 $x151164 $x465647 (= ?Z (= ?A 0.0)) $x331497 (= ?W1 (= ?B 0.0)) $x319210 (= ?N (+ ?U1 ?C)) $x275076 (= ?T1 (not (<= 2.0 ?C))) $x302901 (>= ?F ?K1) (<= ?F ?K1) (>= ?E ?U) (<= ?E ?U) (>= ?D ?L1) (<= ?D ?L1) (not (= ?R1 true)) $x288477 $x267025 $x387570 $x858249 $x553819 $x572313 $x233306 $x239043 $x855196 $x268472 $x323890 $x833416 $x870299 $x266353 $x475486 $x126457 $x194795 $x201869 $x137878 $x272480)))
(=> $x358125 $x362407))))))))))))))))))))))))))))))))))))))))))))))
)
(assert (forall ((?A Real) (?B Real) (?C Real) (?D Bool) (?E Bool) (?F Bool) (?G Bool) (?H Bool) (?I Bool) (?J Real) (?K Real) (?L Bool) (?M Bool) (?N Bool) (?O Bool) (?P Bool) (?Q Bool) (?R Real) (?S Real) (?T Bool) (?U Bool) (?V Bool) (?W Bool) (?X Bool) (?Y Bool) (?Z Bool) (?A1 Bool) (?B1 Bool) (?C1 Bool) (?D1 Bool) (?E1 Bool) (?F1 Bool) (?G1 Bool) (?H1 Real) (?I1 Real) (?J1 Real) (?K1 Bool) (?L1 Bool) (?M1 Real) (?N1 Bool) (?O1 Bool) (?P1 Real) (?Q1 Bool) (?R1 Real) (?S1 Real) (?T1 Bool) (?U1 Bool) (?V1 Real) (?W1 Bool) (?X1 Bool) (?Y1 Bool) (?Z1 Bool) (?A2 Bool) )(let (($x272480 (= ?O1 (and ?A2 ?Z1))))
(let (($x137878 (or (not ?D) (and ?E ?F (not ?G)))))
(let (($x201869 (or (not ?D) ?F)))
(let (($x549955 (not ?H)))
(let (($x567601 (or $x549955 (and ?D ?I (<= ?J ?K) (>= ?J ?K)) (and ?E ?L ?G (<= ?J ?C) (>= ?J ?C)))))
(let (($x126457 (or $x549955 (and ?I (not ?L)) (and ?L (not ?I)))))
(let (($x475486 (or (not ?M) (and ?H ?N (not ?O)))))
(let (($x266353 (or (not ?M) ?N)))
(let (($x16197 (not ?P)))
(let (($x850608 (or $x16197 (and ?M ?Q (<= ?R ?S) (>= ?R ?S)) (and ?H ?T ?O (<= ?R ?B) (>= ?R ?B)))))
(let (($x833416 (or $x16197 (and ?Q (not ?T)) (and ?T (not ?Q)))))
(let (($x323890 (or (not ?U) (and ?P ?V ?W))))
(let (($x268472 (or (not ?U) ?V)))
(let (($x855196 (or (not ?X) (and ?P ?Y (not ?W)))))
(let (($x239043 (or (not ?X) ?Y)))
(let (($x233306 (or (not ?Z) (and ?U ?A1 ?B1))))
(let (($x572313 (or (not ?Z) ?A1)))
(let (($x553819 (or (not ?C1) (and ?X ?D1 ?E1))))
(let (($x858249 (or (not ?C1) ?D1)))
(let (($x128216 (>= ?H1 ?M1)))
(let (($x279462 (<= ?H1 ?M1)))
(let (($x508809 (and ?X ?N1 (not ?E1) $x279462 $x128216 (<= ?I1 0.0) (>= ?I1 0.0))))
(let (($x63001 (>= ?H1 ?J)))
(let (($x174006 (<= ?H1 ?J)))
(let (($x101657 (not ?F1)))
(let (($x846142 (or $x101657 (and ?Z ?G1 $x174006 $x63001 (<= ?I1 ?J1) (>= ?I1 ?J1)) (and ?U ?K1 (not ?B1) $x174006 $x63001 (<= ?I1 ?A) (>= ?I1 ?A)) (and ?C1 ?L1 $x279462 $x128216 (<= ?I1 ?A) (>= ?I1 ?A)) $x508809)))
(let (($x267025 (or $x101657 (and ?G1 (not ?K1) (not ?L1) (not ?N1)) (and ?K1 (not ?G1) (not ?L1) (not ?N1)) (and ?L1 (not ?G1) (not ?K1) (not ?N1)) (and ?N1 (not ?G1) (not ?K1) (not ?L1)))))
(let (($x288477 (= ?F1 true)))
(let (($x571595 (= ?O1 true)))
(let (($x302901 (= ?G (= ?P1 0.0))))
(let (($x275076 (= ?R1 (ite ?Q1 1.0 0.0))))
(let (($x319210 (= ?O (= ?S1 0.0))))
(let (($x331497 (= ?S (ite ?T1 1.0 0.0))))
(let (($x465647 (= ?B1 (not (<= ?J 1.0)))))
(let (($x151164 (= ?U1 (not (<= ?J 0.0)))))
(let (($x227626 (= ?V1 (+ (~ 1.0) ?J))))
(let (($x356883 (= ?M1 (ite ?U1 ?V1 ?J))))
(let (($x63613 (= ?E1 (= ?M1 0.0))))
(let (($x642212 (= ?W1 (= ?R 0.0))))
(let (($x300331 (= ?X1 (= ?R 0.0))))
(let (($x6539 (= ?Y1 (= ?H1 2.0))))
(let (($x354980 (= ?Z1 (= ?I1 0.0))))
(let (($x623034 (= ?A2 (and ?Y1 ?X1))))
(let (($x362407 (|cp-rel-bb1.i.i| ?A ?B ?C)))
(let (($x82042 (and $x362407 $x623034 $x354980 $x6539 $x300331 (= ?J1 (ite ?W1 1.0 ?A)) $x642212 $x63613 $x356883 $x227626 $x151164 $x465647 (= ?W (= ?A 0.0)) $x331497 (= ?T1 (= ?B 0.0)) $x319210 (= ?K (+ ?R1 ?C)) $x275076 (= ?Q1 (not (<= 2.0 ?C))) $x302901 $x571595 $x288477 $x267025 $x846142 $x858249 $x553819 $x572313 $x233306 $x239043 $x855196 $x268472 $x323890 $x833416 $x850608 $x266353 $x475486 $x126457 $x567601 $x201869 $x137878 $x272480)))
(=> $x82042 |cp-rel-bb2.i.i34.i.i|)))))))))))))))))))))))))))))))))))))))))))))))
)
(assert (not cp-rel-bb2.i.i34.i.i))
(check-sat)
